experiments/sat_smt/run/sat-r+/results/claire.res
solved=true
solvingTime=12.3353786468505859375
nActions=10