experiments/sat_smt/run/sat-r+/results/claire.out
Timesteps: 1
s UNSATISFIABLE
real 0.12
user 0.01
sys 0.00
Timesteps: 2
s UNSATISFIABLE
real 0.09
user 0.03
sys 0.00
Timesteps: 3
s UNSATISFIABLE
real 0.21
user 0.08
sys 0.00
Timesteps: 4
s UNSATISFIABLE
real 0.22
user 0.14
sys 0.00
Timesteps: 5
s UNSATISFIABLE
real 0.34
user 0.25
sys 0.01
Timesteps: 6
s UNSATISFIABLE
real 1.28
user 1.01
sys 0.01
Timesteps: 7
s UNSATISFIABLE
real 1.12
user 1.00
sys 0.01
Timesteps: 8
s UNSATISFIABLE
real 1.67
user 1.49
sys 0.01
Timesteps: 9
s UNSATISFIABLE
real 3.65
user 3.44
sys 0.02
Timesteps: 10
s SATISFIABLE
real 3.44
user 3.26
sys 0.01
